c ---- [ banner ] ------------------------------------------------------------
c
c Kissat SAT Solver
c 
c Copyright (c) 2021-2024 Armin Biere University of Freiburg
c Copyright (c) 2019-2021 Armin Biere Johannes Kepler University Linz
c 
c Version 4.0.1 43f02cf3e992cb44653b35e5cb26f93281552ae0
c gcc (Ubuntu 13.2.0-23ubuntu4) 13.2.0 -W -Wall -O3 -DNDEBUG
c Thu Sep 12 12:27:46 CEST 2024 Linux abryzen9 6.8.0-41-generic x86_64
c
c ---- [ parsing ] -----------------------------------------------------------
c
c opened and reading DIMACS file:
c
c   /data/artifact/AMulet2.0_artifact/exp4/cnf_dc2_64/64_64_U_SP_WT_KS_GenMul_dc2.cnf
c
c parsed 'p cnf 31217 135464' header
c closing input after reading 2705821 bytes (3 MB)
c finished parsing after 0.04 seconds
c
c ---- [ options ] -----------------------------------------------------------
c
c --stable=0                       (different from default '1')
c
c ---- [ solving ] -----------------------------------------------------------
c
c  seconds switched rate     size/glue tier1  binary           remaining
c         MB reductions conflicts size  tier2     irredundant
c          level restarts redundant glue  trail           variables
c
c *  0.04 10 0 0 0  0 0   0   0 0.0 0 0 0 0 0% 13678 121784 31214 100%
c (  0.06 13 0 0 0  0 0   0   0 0.0 0 0 0 0 0% 13678 121784 31214 100%
c .  0.08 13 0 0 0  0 0   0   0 0.0 0 0 0 0 0% 13674 121784 31214 100%
c c  0.18 18 0 0 0  0 0   0   0 0.0 0 0 0 0 0% 20575 108178 27764 89%
c d  0.19 18 0 0 0  0 0   0   0 0.0 0 0 0 0 0% 13675 108178 27764 89%
c =  0.26 18 0 0 0  0 0   0   0 0.0 0 0 0 0 0% 13973 108178 27553 88%
c d  0.27 18 0 0 0  0 0   0   0 0.0 0 0 0 0 0% 13551 108178 27553 88%
c f  0.40 19 0 0 0  0 0   0   0 0.0 0 0 0 0 0% 18498 100389 30327 97%
c e  0.59 28 0 0 0  0 0   0   0 0.0 0 0 0 0 0% 11952 108689 21068 67%
c )  0.59 28 0 0 0  0 0   0   0 0.0 0 0 0 0 0% 11952 108689 21068 67%
c {  0.61 28 0 0 0  0 0   0   0 0.0 0 0 2 6 0% 11952 108689 21068 67%
c -  0.86 28 140 0 1 229 32 1000 698 3.3 17 5 3 10 19% 12047 108688 21068 67%
c -  1.18 28 151 0 2 418 37 2000 1326 3.4 21 6 3 10 19% 12094 108688 21068 67%
c c  1.34 26 260 0 2 453 36 2504 1755 3.4 20 6 3 10 20% 12309 108235 21001 67%
c d  1.35 26 260 0 2 453 36 2504 1729 3.4 20 6 3 10 20% 12175 108235 21001 67%
c u  1.37 26 260 0 2 453 36 2504 1420 3.4 20 6 3 10 20% 12180 108235 21001 67%
c v  1.40 26 260 0 2 453 36 2504 1226 3.4 20 6 3 10 20% 12181 108235 21001 67%
c w  1.42 26 260 0 2 453 36 2504 1226 3.4 20 6 3 10 20% 12181 108235 21001 67%
c x  1.45 26 260 0 2 453 36 2504 1226 3.4 20 6 3 10 20% 12274 107919 21001 67%
c =  1.54 26 260 0 2 453 36 2504 1226 3.4 20 6 3 10 20% 12668 107919 20804 67%
c
c  seconds   switched   rate       size/glue tier1     binary           remaining
c         MB  reductions conflicts       size  tier2       irredundant
c           level restarts    redundant    glue    trail           variables
c
c d  1.55 26 260 0 2 453 36 2504 1224 3.4 20 6 3 10 20% 12272 107919 20803 67%
c t  1.56 26 260 0 2 453 36 2504 1224 3.4 20 6 3 10 20% 12262 107919 20803 67%
c f  1.59 26 260 0 2 453 36 2504 1224 3.4 20 6 3 10 20% 12832 106757 21384 69%
c u  1.70 26 260 0 2 453 36 2504 1157 3.4 20 6 3 10 20% 12842 106757 21384 69%
c v  1.72 26 260 0 2 453 36 2504 1067 3.4 20 6 3 10 20% 12842 106757 21384 69%
c w  1.75 26 260 0 2 453 36 2504 1065 3.4 20 6 3 10 20% 12842 106757 21384 69%
c x  1.77 26 260 0 2 453 36 2504 1065 3.4 20 6 3 10 20% 12842 106405 21384 69%
c =  1.86 26 260 0 2 453 36 2504 1065 3.4 20 6 3 10 20% 13126 106405 21242 68%
c d  1.87 26 260 0 2 453 36 2504 1061 3.4 20 6 3 10 20% 12837 106405 21242 68%
c f  1.91 26 260 0 2 453 36 2504 1061 3.4 20 6 3 10 20% 12865 106363 21256 68%
c -  1.94 26 359 0 3 453 32 3415 1642 3.1 16 5 2 8 18% 12933 106363 21256 68%
c -  2.41 26 325 0 4 691 32 5147 2684 3.4 20 6 2 7 19% 12990 106361 21256 68%
c -  2.91 26 327 0 5 944 33 7147 3936 3.4 20 6 2 8 21% 13061 106360 21256 68%
c d  3.01 26 328 0 5 978 34 7710 4353 3.5 19 6 2 8 21% 13065 106353 21235 68%
c u  3.05 26 328 0 5 978 34 7710 3816 3.5 19 6 2 8 21% 13084 106353 21235 68%
c v  3.09 26 328 0 5 978 34 7710 3151 3.5 19 6 2 8 21% 13085 106353 21235 68%
c w  3.12 26 328 0 5 978 34 7710 3151 3.5 19 6 2 8 21% 13085 106353 21235 68%
c x  3.15 26 328 0 5 978 34 7710 3151 3.5 19 6 2 8 21% 13087 105957 21235 68%
c =  3.27 27 328 0 5 978 34 7710 3151 3.5 19 6 2 8 21% 13411 105957 21073 68%
c d  3.28 27 328 0 5 978 34 7710 3142 3.5 19 6 2 8 21% 13057 105957 21072 68%
c
c  seconds   switched   rate       size/glue tier1    binary           remaining
c         MB  reductions conflicts       size  tier2      irredundant
c           level restarts    redundant    glue   trail           variables
c
c t  3.30 27 328 0 5 978 34 7710 3142 3.5 19 6 2 8 21% 13021 105957 21072 68%
c f  3.35 27 328 0 5 978 34 7710 3142 3.5 19 6 2 8 21% 13203 105676 21165 68%
c u  3.46 27 328 0 5 978 34 7710 3059 3.5 19 6 2 8 21% 13208 105676 21165 68%
c v  3.49 27 328 0 5 978 34 7710 2979 3.5 19 6 2 8 21% 13208 105676 21165 68%
c w  3.52 27 328 0 5 978 34 7710 2972 3.5 19 6 2 8 21% 13208 105676 21165 68%
c x  3.55 27 328 0 5 978 34 7710 2972 3.5 19 6 2 8 21% 13208 105634 21165 68%
c =  3.67 27 328 0 5 978 34 7710 2972 3.5 19 6 2 8 21% 13996 105634 20771 67%
c d  3.68 27 328 0 5 978 34 7710 2956 3.5 19 6 2 8 21% 13124 105634 20771 67%
c t  3.69 27 328 0 5 978 34 7710 2956 3.5 19 6 2 8 21% 13087 105634 20771 67%
c f  3.74 27 328 0 5 978 34 7710 2956 3.5 19 6 2 8 21% 15131 102561 21795 70%
c -  4.34 27 307 0 6 1173 34 9383 3837 3.8 22 6 2 8 22% 15183 102559 21795 70%
c o  4.56 27 303 0 6 1244 35 10001 4307 3.8 22 6 2 8 23% 15226 102559 21795 70%
c -  5.09 27 320 0 7 1442 35 11833 5077 4.1 24 6 2 8 23% 15340 102558 21795 70%
c s  5.32 27 319 0 7 1522 35 12514 5681 4.1 25 6 2 8 23% 15360 97660 21795 70%
c e  5.45 27 319 0 7 1522 35 12514 5681 4.1 25 6 2 8 23% 13656 98969 20938 67%
c 2  5.45 27 319 0 7 1522 35 12514 5681 4.1 25 6 2 8 23% 13655 98969 20938 67%
c s  5.46 27 319 0 7 1522 35 12514 5681 4.1 25 6 2 8 23% 13659 98304 20938 67%
c e  5.47 27 319 0 7 1522 35 12514 5681 4.1 25 6 2 8 23% 13641 98317 20932 67%
c ^  5.47 27 319 0 7 1522 35 12514 5681 4.1 25 6 2 8 23% 13641 98317 20932 67%
c -  6.03 27 303 0 8 1721 33 14478 6116 3.8 23 6 2 8 25% 13676 98314 20932 67%
c
c  seconds   switched    rate        size/glue tier1    binary          remaining
c         MB  reductions   conflicts       size  tier2      irredundant
c           level  restarts     redundant    glue   trail          variables
c
c d  6.47 27 291 0 8 1859 33 15793 7295 3.8 23 6 2 8 25% 13390 98311 20744 66%
c u  6.51 27 291 0 8 1859 33 15793 6476 3.8 23 6 2 8 25% 13415 98311 20744 66%
c v  6.57 27 291 0 8 1859 33 15793 5636 3.8 23 6 2 8 25% 13415 98311 20744 66%
c w  6.68 27 291 0 8 1859 33 15793 5609 3.8 23 6 2 8 25% 13415 98311 20744 66%
c =  6.92 27 291 0 8 1859 33 15793 5609 3.8 23 6 2 8 25% 14571 98311 20166 65%
c d  6.93 27 291 0 8 1859 33 15793 5554 3.8 23 6 2 8 25% 13174 98311 20164 65%
c t  6.95 27 291 0 8 1859 33 15793 5554 3.8 23 6 2 8 25% 13070 98311 20164 65%
c f  7.04 27 291 0 8 1859 33 15793 5554 3.8 23 6 2 8 25% 13233 97971 20245 65%
c u  7.09 27 291 0 8 1859 33 15793 5403 3.8 23 6 2 8 25% 13235 97971 20245 65%
c v  7.14 27 291 0 8 1859 33 15793 5267 3.8 23 6 2 8 25% 13235 97971 20245 65%
c w  7.24 27 291 0 8 1859 33 15793 5244 3.8 23 6 2 8 25% 13235 97971 20245 65%
c x  7.29 27 291 0 8 1859 33 15793 5244 3.8 23 6 2 8 25% 13282 97557 20245 65%
c =  7.55 27 291 0 8 1859 33 15793 5244 3.8 23 6 2 8 25% 13482 97557 20145 65%
c d  7.56 27 291 0 8 1859 33 15793 5239 3.8 23 6 2 8 25% 13211 97557 20145 65%
c t  7.59 27 291 0 8 1859 33 15793 5239 3.8 23 6 2 8 25% 13201 97557 20145 65%
c -  8.17 27 278 0 9 2023 32 17306 5792 3.7 23 6 2 8 26% 13239 97557 20145 65%
c o  9.05 27 255 0 9 2357 31 20040 8073 3.5 23 6 2 8 27% 13329 97557 20145 65%
c -  9.19 27 256 0 10 2390 31 20306 7230 3.5 23 6 2 8 27% 13336 97557 20145 65%
c -  9.92 27 257 0 11 2638 30 23468 8478 3.5 23 7 2 8 27% 13489 97554 20145 65%
c s 10.28 27 253 0 11 2744 29 25019 9894 3.4 22 7 2 8 27% 13512 95474 20145 65%
c
c  seconds   switched     rate        size/glue tier1    binary          remaining
c         MB   reductions   conflicts       size  tier2      irredundant
c           level   restarts     redundant    glue   trail          variables
c
c e 10.41 27 253 0 11 2744 29 25019 9894 3.4 22 7 2 8 27% 10878 98902 18715 60%
c s 10.42 27 253 0 11 2744 29 25019 9894 3.4 22 7 2 8 27% 10905 98329 18715 60%
c e 10.43 27 253 0 11 2744 29 25019 9894 3.4 22 7 2 8 27% 10893 98346 18710 60%
c ^ 10.43 27 253 0 11 2744 29 25019 9894 3.4 22 7 2 8 27% 10893 98346 18710 60%
c - 10.91 27 244 0 12 2911 28 26784 8662 3.3 22 7 2 8 27% 10917 98343 18710 60%
c c 11.05 27 243 0 12 2938 28 26922 8797 3.3 22 7 2 8 27% 10961 98139 18683 60%
c d 11.05 27 243 0 12 2938 28 26922 8776 3.3 22 7 2 8 27% 10607 98139 18505 59%
c u 11.11 27 243 0 12 2938 28 26922 7780 3.3 22 7 2 8 27% 10625 98139 18505 59%
c v 11.17 29 243 0 12 2938 28 26922 6825 3.3 22 7 2 8 27% 10627 98139 18505 59%
c w 11.18 29 243 0 12 2938 28 26922 6819 3.3 22 7 2 8 27% 10627 98139 18505 59%
c x 11.29 29 243 0 12 2938 28 26922 6810 3.3 22 7 2 8 27% 10720 96096 18505 59%
c = 11.63 29 243 0 12 2938 28 26922 6810 3.3 22 7 2 8 27% 14956 96096 16387 52%
c d 11.64 29 243 0 12 2938 28 26922 6652 3.3 22 7 2 8 27% 10595 96096 16385 52%
c t 11.66 29 243 0 12 2938 28 26922 6652 3.3 22 7 2 8 27% 10475 96096 16385 52%
c f 11.75 29 243 0 12 2938 28 26922 6652 3.3 22 7 2 8 27% 10474 96009 16402 53%
c u 11.80 29 243 0 12 2938 28 26922 6193 3.3 22 7 2 8 27% 10475 96009 16402 53%
c v 11.84 29 243 0 12 2938 28 26922 6061 3.3 22 7 2 8 27% 10475 96009 16402 53%
c w 11.86 29 243 0 12 2938 28 26922 6056 3.3 22 7 2 8 27% 10475 96009 16402 53%
c x 11.99 29 243 0 12 2938 28 26922 6054 3.3 22 7 2 8 27% 10492 87340 16402 53%
c = 12.31 29 243 0 12 2938 28 26922 6054 3.3 22 7 2 8 27% 13964 87334 14666 47%
c
c  seconds   switched     rate        size/glue tier1    binary          remaining
c         MB   reductions   conflicts       size  tier2      irredundant
c           level   restarts     redundant    glue   trail          variables
c
c d 12.32 29 243 0 12 2938 28 26922 5983 3.3 22 7 2 8 27% 10426 87334 14666 47%
c t 12.34 29 243 0 12 2938 28 26922 5983 3.3 22 7 2 8 27% 10282 87334 14666 47%
c f 12.39 29 243 0 12 2938 28 26922 5983 3.3 22 7 2 8 27% 10298 87242 14689 47%
c - 12.96 29 226 0 13 3173 27 30249 7904 3.2 21 7 2 8 27% 10334 87240 14689 47%
c - 13.84 29 214 0 14 3581 26 33854 9864 3.1 20 7 2 8 27% 10407 87236 14689 47%
c - 14.56 29 218 0 15 3878 26 37595 11600 3.0 20 7 2 8 27% 10452 87230 14689 47%
c o 14.80 29 212 0 15 3963 25 40064 13687 3.0 20 6 2 8 26% 10484 87229 14689 47%
c c 15.13 29 209 0 15 4085 25 41248 14721 3.0 20 6 2 8 26% 10601 86705 14601 47%
c d 15.14 29 209 0 15 4085 25 41248 14366 3.0 20 6 2 8 26% 10425 86705 14601 47%
c u 15.21 29 209 0 15 4085 25 41248 11973 3.0 20 6 2 8 26% 10444 86705 14601 47%
c v 15.28 29 209 0 15 4085 25 41248 11391 3.0 20 6 2 8 26% 10445 86705 14601 47%
c w 15.32 29 209 0 15 4085 25 41248 11391 3.0 20 6 2 8 26% 10445 86705 14601 47%
c x 15.39 29 209 0 15 4085 25 41248 11391 3.0 20 6 2 8 26% 10453 77870 14601 47%
c = 15.64 29 209 0 15 4085 25 41248 11391 3.0 20 6 2 8 26% 10461 77870 14597 47%
c d 15.65 29 209 0 15 4085 25 41248 11378 3.0 20 6 2 8 26% 10436 77870 14589 47%
c t 15.67 29 209 0 15 4085 25 41248 11378 3.0 20 6 2 8 26% 10408 77870 14589 47%
c f 15.69 29 209 0 15 4085 25 41248 11378 3.0 20 6 2 8 26% 10408 77866 14590 47%
c c 15.75 29 209 0 15 4085 25 41248 11344 3.0 20 6 2 8 26% 10414 77834 14586 47%
c d 15.76 29 209 0 15 4085 25 41248 11344 3.0 20 6 2 8 26% 10406 77834 14586 47%
c u 15.81 29 209 0 15 4085 25 41248 10869 3.0 20 6 2 8 26% 10413 77834 14586 47%
c
c  seconds   switched     rate        size/glue tier1    binary          remaining
c         MB   reductions   conflicts       size  tier2      irredundant
c           level   restarts     redundant    glue   trail          variables
c
c v 15.89 29 209 0 15 4085 25 41248 9975 3.0 20 6 2 8 26% 10419 77834 14586 47%
c w 15.93 29 209 0 15 4085 25 41248 9973 3.0 20 6 2 8 26% 10419 77834 14586 47%
c x 15.99 29 209 0 15 4085 25 41248 9971 3.0 20 6 2 8 26% 10428 75577 14586 47%
c d 16.25 29 209 0 15 4085 25 41248 9963 3.0 20 6 2 8 26% 10424 75577 14584 47%
c t 16.27 29 209 0 15 4085 25 41248 9963 3.0 20 6 2 8 26% 10418 75577 14584 47%
c - 16.30 29 210 0 16 4085 25 41467 9010 3.0 20 6 2 7 26% 10421 75576 14584 47%
c - 16.73 29 212 0 17 4294 24 45468 11127 3.0 19 6 2 7 25% 10522 75575 14584 47%
c - 17.63 29 208 0 18 4743 24 49591 13259 2.9 19 6 2 7 25% 10587 75572 14584 47%
c s 18.30 29 204 0 18 5105 24 52126 15525 2.9 19 6 2 7 25% 10632 70255 14584 47%
c e 18.39 29 204 0 18 5105 24 52126 15525 2.9 19 6 2 7 25% 9749 71628 14088 45%
c 2 18.40 29 204 0 18 5105 24 52126 15525 2.9 19 6 2 7 25% 9741 71628 14088 45%
c s 18.40 29 204 0 18 5105 24 52126 15525 2.9 19 6 2 7 25% 9757 71340 14088 45%
c e 18.41 29 204 0 18 5105 24 52126 15525 2.9 19 6 2 7 25% 9752 71346 14083 45%
c ^ 18.41 29 204 0 18 5105 24 52126 15525 2.9 19 6 2 7 25% 9752 71346 14083 45%
c - 18.73 29 200 0 19 5315 24 53834 13833 2.9 19 7 2 7 25% 9765 71345 14083 45%
c - 19.37 29 194 0 20 5843 24 58192 15679 2.9 19 7 2 6 26% 9837 71341 14083 45%
c d 19.47 29 193 0 20 5913 24 58889 16109 2.9 19 7 2 6 26% 9772 71341 14042 45%
c u 19.52 29 193 0 20 5913 24 58889 13575 2.9 19 7 2 6 26% 9817 71341 14042 45%
c v 19.57 29 193 0 20 5913 24 58889 12085 2.9 19 7 2 6 26% 9823 71341 14042 45%
c w 19.60 29 193 0 20 5913 24 58889 12060 2.9 19 7 2 6 26% 9823 71341 14042 45%
c
c  seconds   switched     rate         size/glue tier1    binary         remaining
c         MB   reductions   conflicts        size  tier2     irredundant
c           level   restarts      redundant    glue   trail         variables
c
c x 19.65 29 193 0 20 5913 24 58889 12046 2.9 19 7 2 6 26% 9838 70249 14042 45%
c d 19.66 29 193 0 20 5913 24 58889 12023 2.9 19 7 2 6 26% 9818 70249 14032 45%
c t 19.67 29 193 0 20 5913 24 58889 12023 2.9 19 7 2 6 26% 9768 70249 14032 45%
c f 19.69 29 193 0 20 5913 24 58889 12023 2.9 19 7 2 6 26% 9769 70193 14042 45%
c c 19.72 29 193 0 20 5913 24 58889 11986 2.9 19 7 2 6 26% 9805 70061 14025 45%
c d 19.72 29 193 0 20 5913 24 58889 11986 2.9 19 7 2 6 26% 9771 70061 14025 45%
c u 19.76 29 193 0 20 5913 24 58889 11477 2.9 19 7 2 6 26% 9780 70061 14025 45%
c v 19.79 29 193 0 20 5913 24 58889 11215 2.9 19 7 2 6 26% 9781 70061 14025 45%
c w 19.81 29 193 0 20 5913 24 58889 11184 2.9 19 7 2 6 26% 9781 70061 14025 45%
c x 19.90 29 193 0 20 5913 24 58889 11184 2.9 19 7 2 6 26% 9807 69843 14025 45%
c = 20.13 29 193 0 20 5913 24 58889 11184 2.9 19 7 2 6 26% 10203 69843 13827 44%
c d 20.14 29 193 0 20 5913 24 58889 11095 2.9 19 7 2 6 26% 9776 69843 13822 44%
c t 20.15 29 193 0 20 5913 24 58889 11095 2.9 19 7 2 6 26% 9751 69843 13822 44%
c f 20.16 29 193 0 20 5913 24 58889 11095 2.9 19 7 2 6 26% 9758 69813 13826 44%
c - 20.57 29 188 0 21 6200 23 62664 12844 2.8 19 7 2 6 26% 9832 69806 13826 44%
c - 21.26 29 181 0 22 6731 23 67247 15241 2.8 19 7 2 6 26% 9873 69806 13826 44%
c o 21.70 29 182 0 22 7082 23 70156 17845 2.8 19 7 2 6 26% 9903 69802 13826 44%
c - 21.83 29 183 0 23 7188 23 71937 17153 2.8 19 7 2 6 26% 9934 69801 13826 44%
c i 22.57 29 181 0 23 7818 24 76378 21113 2.9 20 7 2 6 26% 10032 69798 13825 44%
c - 22.62 29 181 0 24 7859 24 76735 18920 2.9 20 7 2 6 25% 10032 69798 13825 44%
c
c  seconds   switched     rate         size/glue tier1    binary          remaining
c         MB   reductions   conflicts        size  tier2      irredundant
c           level   restarts      redundant    glue   trail          variables
c
c c 23.05 29 179 0 24 8183 23 79977 21815 2.9 20 7 2 6 25% 10122 69212 13707 44%
c d 23.06 29 179 0 24 8183 23 79977 21371 2.9 20 7 2 6 25% 9888 69210 13707 44%
c d 23.06 29 179 0 24 8183 23 79977 21371 2.9 20 7 2 6 25% 9886 69210 13706 44%
c u 23.12 29 179 0 24 8183 23 79977 17843 2.9 20 7 2 6 25% 9937 69210 13706 44%
c v 23.18 29 179 0 24 8183 23 79977 16016 2.9 20 7 2 6 25% 9949 69210 13706 44%
c w 23.28 29 179 0 24 8183 23 79977 15989 2.9 20 7 2 6 25% 9949 69210 13706 44%
c = 23.38 29 179 0 24 8183 23 79977 15989 2.9 20 7 2 6 25% 10077 69210 13642 44%
c d 23.39 29 179 0 24 8183 23 79977 15786 2.9 20 7 2 6 25% 9893 69210 13632 44%
c t 23.40 29 179 0 24 8183 23 79977 15786 2.9 20 7 2 6 25% 9841 69210 13632 44%
c f 23.41 29 179 0 24 8183 23 79977 15786 2.9 20 7 2 6 25% 9849 69172 13637 44%
c c 23.44 29 179 0 24 8183 23 79977 15755 2.9 20 7 2 6 25% 9858 69124 13631 44%
c d 23.45 29 179 0 24 8183 23 79977 15755 2.9 20 7 2 6 25% 9846 69124 13631 44%
c u 23.49 29 179 0 24 8183 23 79977 14921 2.9 20 7 2 6 25% 9854 69124 13631 44%
c v 23.53 29 179 0 24 8183 23 79977 14485 2.9 20 7 2 6 25% 9854 69124 13631 44%
c w 23.60 29 179 0 24 8183 23 79977 14388 2.9 20 7 2 6 25% 9854 69124 13631 44%
c x 23.66 29 179 0 24 8183 23 79977 14368 2.9 20 7 2 6 25% 9861 67225 13631 44%
c = 24.00 29 179 0 24 8183 23 79977 14368 2.9 20 7 2 6 25% 10225 67162 13443 43%
c d 24.00 29 179 0 24 8183 23 79977 14254 2.9 20 7 2 6 25% 9825 67162 13443 43%
c t 24.01 29 179 0 24 8183 23 79977 14254 2.9 20 7 2 6 25% 9766 67162 13443 43%
c f 24.02 29 179 0 24 8183 23 79977 14254 2.9 20 7 2 6 25% 9781 67086 13453 43%
c
c  seconds   switched     rate         size/glue tier1    binary         remaining
c         MB   reductions   conflicts        size  tier2     irredundant
c           level   restarts      redundant    glue   trail         variables
c
c - 24.24 29 178 0 25 8302 23 81637 14168 2.9 20 7 2 6 25% 9783 67086 13453 43%
c - 25.06 29 173 0 26 8927 23 86637 15217 2.9 20 7 1 6 26% 9815 67081 13453 43%
c - 25.84 29 173 0 27 9525 23 91737 16790 3.0 21 7 1 5 26% 9841 67078 13453 43%
c i 26.13 29 177 0 27 9760 23 95317 19856 3.0 21 7 1 5 26% 9892 67077 13452 43%
c s 26.24 29 177 0 27 9857 23 95840 20356 3.0 21 7 1 5 26% 9896 66552 13452 43%
c e 26.32 29 177 0 27 9857 23 95840 20356 3.0 21 7 1 5 26% 6496 74679 11779 38%
c 2 26.32 29 177 0 27 9857 23 95840 20356 3.0 21 7 1 5 26% 6492 74679 11779 38%
c s 26.33 29 177 0 27 9857 23 95840 20356 3.0 21 7 1 5 26% 6521 74181 11779 38%
c e 26.34 29 177 0 27 9857 23 95840 20356 3.0 21 7 1 5 26% 6487 74296 11746 38%
c ^ 26.34 29 177 0 27 9857 23 95840 20356 3.0 21 7 1 5 26% 6487 74296 11746 38%
c - 26.46 29 175 0 28 9939 23 96933 13046 2.9 20 7 1 5 26% 6487 74296 11746 38%
c - 27.04 29 170 0 29 10403 22 102224 15040 2.9 20 7 1 5 26% 6508 74294 11746 38%
c d 27.26 29 168 0 29 10575 22 104635 17181 2.9 20 7 1 5 25% 6513 74293 11739 38%
c u 27.29 29 168 0 29 10575 22 104635 15564 2.9 20 7 1 5 25% 6534 74293 11739 38%
c v 27.34 29 168 0 29 10575 22 104635 13305 2.9 20 7 1 5 25% 6539 74293 11739 38%
c w 27.42 29 168 0 29 10575 22 104635 13125 2.9 20 7 1 5 25% 6539 74293 11739 38%
c x 27.48 29 168 0 29 10575 22 104635 13122 2.9 20 7 1 5 25% 6550 74071 11739 38%
c = 27.83 29 168 0 29 10575 22 104635 13122 2.9 20 7 1 5 25% 6604 74015 11705 37%
c d 27.83 29 168 0 29 10575 22 104635 13009 2.9 20 7 1 5 25% 6534 74015 11701 37%
c t 27.84 29 168 0 29 10575 22 104635 13009 2.9 20 7 1 5 25% 6477 74015 11701 37%
c
c  seconds   switched      rate          size/glue tier1    binary         remaining
c         MB   reductions    conflicts         size  tier2     irredundant
c           level   restarts        redundant    glue   trail         variables
c
c f 27.88 29 168 0 29 10575 22 104635 13009 2.9 20 7 1 5 25% 6499 73865 11714 38%
c c 27.91 29 168 0 29 10575 22 104635 12947 2.9 20 7 1 5 25% 6510 73741 11690 37%
c d 27.91 29 168 0 29 10575 22 104635 12947 2.9 20 7 1 5 25% 6476 73741 11690 37%
c u 27.94 29 168 0 29 10575 22 104635 12569 2.9 20 7 1 5 25% 6484 73741 11690 37%
c v 27.96 29 168 0 29 10575 22 104635 12061 2.9 20 7 1 5 25% 6486 73741 11690 37%
c w 28.04 29 168 0 29 10575 22 104635 11840 2.9 20 7 1 5 25% 6486 73741 11690 37%
c d 28.36 29 168 0 29 10575 22 104635 11839 2.9 20 7 1 5 25% 6484 73741 11689 37%
c t 28.37 29 168 0 29 10575 22 104635 11839 2.9 20 7 1 5 25% 6482 73741 11689 37%
c f 28.37 29 168 0 29 10575 22 104635 11839 2.9 20 7 1 5 25% 6487 73707 11692 37%
c i 28.59 29 167 0 29 10761 22 106975 13920 2.9 20 7 1 5 26% 6521 73707 11684 37%
c - 28.65 29 167 0 30 10806 22 107609 12317 2.9 20 7 1 5 25% 6514 73706 11684 37%
c i 28.90 29 165 0 30 11036 22 109540 14123 2.9 20 7 1 5 26% 6530 73706 11683 37%
c i 28.93 29 165 0 30 11069 22 110053 14524 2.9 20 7 1 5 25% 6537 73706 11681 37%
c i 28.93 29 165 0 30 11069 22 110088 14541 2.9 20 7 1 5 25% 6541 73706 11679 37%
c i 28.93 29 165 0 30 11069 22 110117 14548 2.9 20 7 1 5 25% 6546 73706 11678 37%
c o 28.94 29 166 0 30 11070 22 110205 14626 2.9 20 7 1 5 25% 6548 73706 11678 37%
c i 28.99 29 165 0 30 11111 22 110861 15187 2.9 20 7 1 5 25% 6554 73706 11677 37%
c i 29.04 29 164 0 30 11151 22 111579 15845 2.9 20 7 1 5 25% 6558 73706 11675 37%
c - 29.23 29 163 0 31 11348 22 113086 14431 2.8 20 7 1 5 25% 6543 73706 11675 37%
c i 29.24 29 163 0 31 11359 22 113168 14494 2.8 20 7 1 5 25% 6548 73706 11674 37%
c
c  seconds   switched      rate          size/glue tier1    binary         remaining
c         MB   reductions    conflicts         size  tier2     irredundant
c           level   restarts        redundant    glue   trail         variables
c
c i 29.26 29 163 0 31 11378 22 113332 14649 2.8 20 7 1 5 25% 6549 73706 11673 37%
c i 29.36 29 161 0 31 11480 21 114940 16098 2.8 20 7 1 5 25% 6559 73706 11672 37%
c i 29.44 29 160 0 31 11529 21 116667 17614 2.8 20 7 1 5 25% 6587 73704 11671 37%
c - 29.70 29 158 0 32 11796 21 118653 16351 2.8 20 7 1 5 25% 6583 73704 11671 37%
c i 29.73 29 158 0 32 11828 21 118876 16538 2.8 20 7 1 5 25% 6588 73704 11670 37%
c i 29.76 29 157 0 32 11841 21 119345 16971 2.8 20 7 1 5 25% 6590 73704 11669 37%
c i 29.98 29 155 0 32 12030 21 121930 19330 2.8 20 7 1 5 25% 6621 73704 11668 37%
c - 30.22 29 153 0 33 12280 21 124310 17856 2.8 20 7 1 5 25% 6620 73704 11668 37%
c i 30.25 29 153 0 33 12307 21 124543 18040 2.8 20 7 1 5 25% 6628 73704 11667 37%
c i 30.25 29 153 0 33 12307 21 124646 18097 2.8 20 7 1 5 25% 6639 73704 11665 37%
c i 30.25 29 152 0 33 12307 21 124744 18157 2.8 20 7 1 5 25% 6645 73704 11662 37%
c i 30.32 29 150 0 33 12385 20 126614 19726 2.8 20 7 1 5 24% 6679 73702 11661 37%
c - 30.52 29 147 0 34 12711 20 130056 18557 2.7 20 7 1 5 24% 6690 73701 11661 37%
c i 30.57 29 145 0 34 12778 20 131073 19457 2.7 20 7 1 5 24% 6704 73701 11660 37%
c i 30.59 29 145 0 34 12826 19 131546 19852 2.7 20 7 1 5 24% 6717 73701 11659 37%
c i 30.64 29 144 0 34 12916 19 132548 20746 2.7 19 7 1 5 23% 6738 73701 11656 37%
c c 30.67 29 143 0 34 12916 19 132909 21061 2.7 19 7 1 5 23% 6728 73140 11599 37%
c d 30.67 29 143 0 34 12916 19 132909 20499 2.7 19 7 1 5 23% 6657 73098 11599 37%
c d 30.67 29 143 0 34 12916 19 132909 20497 2.7 19 7 1 5 23% 6615 73098 11578 37%
c u 30.70 29 143 0 34 12916 19 132909 18558 2.7 19 7 1 5 23% 6647 73098 11578 37%
c
c  seconds   switched      rate          size/glue tier1    binary         remaining
c         MB   reductions    conflicts         size  tier2     irredundant
c           level   restarts        redundant    glue   trail         variables
c
c v 30.75 29 143 0 34 12916 19 132909 15814 2.7 19 7 1 5 23% 6669 73098 11578 37%
c w 30.78 29 143 0 34 12916 19 132909 15785 2.7 19 7 1 5 23% 6665 73098 11578 37%
c x 30.82 29 143 0 34 12916 19 132909 15784 2.7 19 7 1 5 23% 6665 73077 11578 37%
c t 30.83 29 143 0 34 12916 19 132909 15784 2.7 19 7 1 5 23% 6597 73077 11578 37%
c f 30.84 29 143 0 34 12916 19 132909 15784 2.7 19 7 1 5 23% 6599 73055 11580 37%
c u 30.89 29 143 0 34 12916 19 132909 15277 2.7 19 7 1 5 23% 6611 73055 11579 37%
c v 30.92 29 143 0 34 12916 19 132909 14730 2.7 19 7 1 5 23% 6615 73055 11579 37%
c w 30.98 29 143 0 34 12916 19 132909 14357 2.7 19 7 1 5 23% 6617 73055 11579 37%
c = 31.25 29 143 0 34 12916 19 132909 14357 2.7 19 7 1 5 23% 6641 73047 11567 37%
c d 31.25 29 143 0 34 12916 19 132909 14348 2.7 19 7 1 5 23% 6614 73045 11567 37%
c d 31.25 29 143 0 34 12916 19 132909 14348 2.7 19 7 1 5 23% 6612 73045 11566 37%
c t 31.26 29 143 0 34 12916 19 132909 14348 2.7 19 7 1 5 23% 6597 73045 11566 37%
c i 31.27 29 143 0 34 12916 19 132909 14348 2.7 19 7 1 5 23% 6597 73045 11566 37%
c i 31.29 29 142 0 34 12963 19 133684 14986 2.7 19 7 1 5 23% 6618 73043 11565 37%
c i 31.29 29 142 0 34 12963 19 133864 15125 2.7 19 7 1 5 23% 6630 73043 11561 37%
c i 31.29 29 142 0 34 12963 19 133867 15126 2.7 19 7 1 5 23% 6631 73043 11560 37%
c i 31.29 29 142 0 34 12963 19 133872 15127 2.7 19 7 1 5 23% 6632 73043 11508 37%
c } 31.29 29 142 0 34 12963 19 133874 15127 2.7 19 7 1 5 23% 6632 73043 11505 37%
c 0 31.29 29 142 0 34 12963 19 133874 15127 2.7 19 7 1 5 23% 6632 73043 11505 37%
c
c ---- [ result ] ------------------------------------------------------------
c
s UNSATISFIABLE
c
c ---- [ profiling ] ---------------------------------------------------------
c
c          21.41   68.41 %  search
c          21.41   68.41 %  focused
c           9.27   29.63 %  simplify
c           8.98   28.69 %  probe
c           3.75   11.98 %  sweep
c           3.15   10.05 %  vivify
c           0.70    2.22 %  factor
c           0.67    2.13 %  congruence
c           0.62    1.98 %  eliminate
c           0.52    1.68 %  preprocess
c           0.52    1.65 %  substitute
c           0.19    0.60 %  fastel
c           0.17    0.55 %  reduce
c           0.14    0.43 %  transitive
c           0.11    0.36 %  subsume
c           0.07    0.22 %  backbone
c           0.05    0.17 %  lucky
c           0.04    0.11 %  parse
c =============================================
c          31.29  100.00 %  total
c
c ---- [ statistics ] --------------------------------------------------------
c
c chronological:                         4046                3 %  conflicts
c conflicts:                           133874             4278.42 per second
c congruent:                             3851               12 %  variables
c decisions:                          2658783               19.86 per conflict
c eliminated:                           13764               44 %  variables
c factored:                              4655               15 %  variables
c fast_eliminated:                       9259               67 %  eliminated
c fast_strengthened:                       25                2 %  per strengthened
c fast_subsumed:                           67                0 %  per subsumed
c iterations:                              28                0 %  variables
c propagations:                     123139607          3935368    per second
c reductions:                              34             3937    interval
c reordered:                                5            26775    interval
c restarts:                             12963               10    interval
c strengthened:                          1271                0 %  checks
c substituted:                          10479               34 %  variables
c subsumed:                             14821                1 %  checks
c switched:                                 0                0    interval
c vivified:                             73876               13 %  checks
c
c ---- [ glue usage ] --------------------------------------------------------
c
c focused glue 1 used 175423 clauses 54.76% accumulated 54.76% tier1
c focused glue 2 used  71008 clauses 22.17% accumulated 76.93%
c focused glue 3 used  21804 clauses  6.81% accumulated 83.74%
c focused glue 4 used  13340 clauses  4.16% accumulated 87.90%
c focused glue 5 used   8798 clauses  2.75% accumulated 90.65% tier2
c
c ---- [ resources ] ---------------------------------------------------------
c
c maximum-resident-set-size:         30633984 bytes         29 MB
c process-time:                            31s              31.29 seconds
c
c ---- [ shutting down ] -----------------------------------------------------
c
c exit 20
